NAME examples

ROWS
      N obj
      G c1
      G c2
      G c3
      G c4
      G c5
      G c6
      G c7
      G c8
      G c9
      G c10
      G c11
      G c12
      G c13
      G c14
      G c15
      G c16
      G c17
      G c18
      G c19
      G c20
      G c21
      G c22
      G c23
      G c24
      G c25
      G c26
      G c27
      G c28

COLUMNS
      x1  obj   0.13
      x1 c9 1
      x2  obj   1.08
      x2 c1 1
      x2 c4 1
      x2 c5 1
      x2 c7 1
      x2 c11 1
      x2 c13 1
      x2 c14 1
      x2 c17 1
      x2 c20 1
      x2 c23 1
      x2 c28 1
      x3  obj   0.86
      x3 c3 1
      x3 c6 1
      x3 c9 1
      x3 c16 1
      x3 c19 1
      x3 c21 1
      x4  obj   1.89
      x4 c1 1
      x4 c4 1
      x4 c5 1
      x4 c7 1
      x4 c8 1
      x4 c11 1
      x4 c13 1
      x4 c14 1
      x4 c17 1
      x4 c18 1
      x4 c20 1
      x4 c22 1
      x4 c23 1
      x4 c24 1
      x4 c26 1
      x4 c27 1
      x4 c28 1
      x5  obj   0.86
      x5 c3 1
      x5 c6 1
      x5 c9 1
      x5 c16 1
      x5 c19 1
      x5 c21 1
      x6  obj   0.33
      x6 c12 1
      x7  obj   1.89
      x7 c1 1
      x7 c4 1
      x7 c5 1
      x7 c7 1
      x7 c8 1
      x7 c11 1
      x7 c13 1
      x7 c14 1
      x7 c17 1
      x7 c18 1
      x7 c20 1
      x7 c22 1
      x7 c23 1
      x7 c24 1
      x7 c26 1
      x7 c27 1
      x7 c28 1
      x8  obj   0.08
      x8 c7 1
      x9  obj   0.81
      x9 c1 1
      x9 c4 1
      x9 c5 1
      x9 c7 1
      x9 c13 1
      x9 c14 1
      x9 c17 1
      x9 c20 1
      x9 c23 1
      x10  obj   0.27
      x10 c6 1
      x10 c9 1
      x11  obj   1.89
      x11 c1 1
      x11 c4 1
      x11 c5 1
      x11 c7 1
      x11 c8 1
      x11 c11 1
      x11 c13 1
      x11 c14 1
      x11 c17 1
      x11 c18 1
      x11 c20 1
      x11 c22 1
      x11 c23 1
      x11 c24 1
      x11 c26 1
      x11 c27 1
      x11 c28 1
      x12  obj   0.24
      x12 c18 1
      x12 c26 1
      x13  obj   0.24
      x13 c1 1
      x13 c4 1
      x13 c23 1
      x14  obj   0.14
      x14 c21 1
      x15  obj   0.81
      x15 c1 1
      x15 c4 1
      x15 c5 1
      x15 c7 1
      x15 c13 1
      x15 c17 1
      x15 c20 1
      x15 c23 1
      x15 c28 1
      x16  obj   1.11
      x16 c3 1
      x16 c6 1
      x16 c9 1
      x16 c16 1
      x16 c19 1
      x16 c21 1
      x16 c25 1
      x17  obj   1.5
      x17 c2 1
      x17 c10 1
      x17 c12 1
      x17 c15 1
      x18  obj   0.27
      x18 c8 1
      x18 c27 1
      x19  obj   0.14
      x19 c3 1
      x20  obj   0.08
      x20 c17 1
      x21  obj   0.08
      x21 c4 1
      x22  obj   1.89
      x22 c1 1
      x22 c4 1
      x22 c5 1
      x22 c7 1
      x22 c8 1
      x22 c11 1
      x22 c13 1
      x22 c14 1
      x22 c17 1
      x22 c18 1
      x22 c20 1
      x22 c22 1
      x22 c23 1
      x22 c24 1
      x22 c26 1
      x22 c27 1
      x22 c28 1
      x23  obj   0.38
      x23 c18 1
      x23 c22 1
      x23 c26 1
      x24  obj   0.08
      x24 c1 1
      x25  obj   1.89
      x25 c1 1
      x25 c4 1
      x25 c5 1
      x25 c7 1
      x25 c8 1
      x25 c11 1
      x25 c13 1
      x25 c14 1
      x25 c17 1
      x25 c18 1
      x25 c20 1
      x25 c22 1
      x25 c23 1
      x25 c24 1
      x25 c26 1
      x25 c27 1
      x25 c28 1
      x26  obj   0.41
      x26 c1 1
      x26 c4 1
      x26 c5 1
      x26 c17 1
      x26 c23 1
      x27  obj   0.13
      x27 c8 1
      x28  obj   0.33
      x28 c10 1
      x29  obj   0.69
      x29 c1 1
      x29 c4 1
      x29 c5 1
      x29 c7 1
      x29 c13 1
      x29 c17 1
      x29 c20 1
      x29 c23 1
      x30  obj   1.89
      x30 c1 1
      x30 c4 1
      x30 c5 1
      x30 c7 1
      x30 c8 1
      x30 c11 1
      x30 c13 1
      x30 c14 1
      x30 c17 1
      x30 c18 1
      x30 c20 1
      x30 c22 1
      x30 c23 1
      x30 c24 1
      x30 c26 1
      x30 c27 1
      x30 c28 1
      x31  obj   1.11
      x31 c3 1
      x31 c6 1
      x31 c9 1
      x31 c16 1
      x31 c19 1
      x31 c21 1
      x31 c25 1
      x32  obj   0.33
      x32 c2 1
      x33  obj   1.5
      x33 c2 1
      x33 c10 1
      x33 c12 1
      x33 c15 1
      x34  obj   0.11
      x34 c26 1
      x35  obj   1.11
      x35 c3 1
      x35 c6 1
      x35 c9 1
      x35 c16 1
      x35 c19 1
      x35 c21 1
      x35 c25 1
      x36  obj   1.11
      x36 c3 1
      x36 c6 1
      x36 c9 1
      x36 c16 1
      x36 c19 1
      x36 c21 1
      x36 c25 1
      x37  obj   0.14
      x37 c16 1
      x38  obj   0.17
      x38 c7 1
      x38 c13 1

RHS
      rhs c1  1
      rhs c2  1
      rhs c3  1
      rhs c4  1
      rhs c5  1
      rhs c6  1
      rhs c7  1
      rhs c8  1
      rhs c9  1
      rhs c10  1
      rhs c11  1
      rhs c12  1
      rhs c13  1
      rhs c14  1
      rhs c15  1
      rhs c16  1
      rhs c17  1
      rhs c18  1
      rhs c19  1
      rhs c20  1
      rhs c21  1
      rhs c22  1
      rhs c23  1
      rhs c24  1
      rhs c25  1
      rhs c26  1
      rhs c27  1
      rhs c28  1

BOUNDS
      LI bnd x1 0
      LI bnd x2 0
      LI bnd x3 0
      LI bnd x4 0
      LI bnd x5 0
      LI bnd x6 0
      LI bnd x7 0
      LI bnd x8 0
      LI bnd x9 0
      LI bnd x10 0
      LI bnd x11 0
      LI bnd x12 0
      LI bnd x13 0
      LI bnd x14 0
      LI bnd x15 0
      LI bnd x16 0
      LI bnd x17 0
      LI bnd x18 0
      LI bnd x19 0
      LI bnd x20 0
      LI bnd x21 0
      LI bnd x22 0
      LI bnd x23 0
      LI bnd x24 0
      LI bnd x25 0
      LI bnd x26 0
      LI bnd x27 0
      LI bnd x28 0
      LI bnd x29 0
      LI bnd x30 0
      LI bnd x31 0
      LI bnd x32 0
      LI bnd x33 0
      LI bnd x34 0
      LI bnd x35 0
      LI bnd x36 0
      LI bnd x37 0
      LI bnd x38 0
      UI bnd x1 1
      UI bnd x2 1
      UI bnd x3 1
      UI bnd x4 1
      UI bnd x5 1
      UI bnd x6 1
      UI bnd x7 1
      UI bnd x8 1
      UI bnd x9 1
      UI bnd x10 1
      UI bnd x11 1
      UI bnd x12 1
      UI bnd x13 1
      UI bnd x14 1
      UI bnd x15 1
      UI bnd x16 1
      UI bnd x17 1
      UI bnd x18 1
      UI bnd x19 1
      UI bnd x20 1
      UI bnd x21 1
      UI bnd x22 1
      UI bnd x23 1
      UI bnd x24 1
      UI bnd x25 1
      UI bnd x26 1
      UI bnd x27 1
      UI bnd x28 1
      UI bnd x29 1
      UI bnd x30 1
      UI bnd x31 1
      UI bnd x32 1
      UI bnd x33 1
      UI bnd x34 1
      UI bnd x35 1
      UI bnd x36 1
      UI bnd x37 1
      UI bnd x38 1

ENDATA